\ Model ajuste
\ LP format - for model browsing. Use MPS format to capture full model detail.
\ Signature: 0xc60ddf5a1d6698dd
Minimize
  - 32877.57369473912 coef_ajuste + 15996.12865812176 Constant + [
   33787.38928509982 coef_ajuste ^2 ] / 2 
Subject To
Bounds
 coef_ajuste <= 1
 Constant = 1
End
